
Gurobi 11.0.0 (linux64) logging started Tue Sep 17 04:02:21 2024

Set parameter LogFile to value "gurobi.log"
Set parameter InfUnbdInfo to value 1
Gurobi Optimizer version 11.0.0 build v11.0.0rc2 (linux64 - "Ubuntu 22.04.4 LTS")

CPU model: AMD EPYC 7V13 64-Core Processor, instruction set [SSE2|AVX|AVX2]
Thread count: 128 physical cores, 128 logical processors, using up to 32 threads

Optimize a model with 25 rows, 290 columns and 80 nonzeros
Model fingerprint: 0xac07942f
Model has 289 quadratic constraints
Variable types: 82 continuous, 208 integer (0 binary)
Coefficient statistics:
  Matrix range     [1e+00, 6e+04]
  QMatrix range    [1e+00, 6e+04]
  QLMatrix range   [1e+00, 6e+04]
  Objective range  [1e+00, 1e+00]
  Bounds range     [1e+00, 7e+11]
  RHS range        [1e+00, 7e+03]
  QRHS range       [1e+00, 2e+06]
Warning: Model contains large bounds
         Consider reformulating model or setting NumericFocus parameter
         to avoid numerical issues.
Using branch priorities (all 0).
Presolve added 9 rows and 0 columns
Presolve removed 0 rows and 36 columns
Presolve time: 0.00s
Presolved: 969 rows, 386 columns, 2515 nonzeros
Presolved model has 18 SOS constraint(s)
Presolved model has 174 bilinear constraint(s)
Warning: Model contains variables with very large bounds participating
         in product terms.
         Presolve was not able to compute smaller bounds for these variables.
         Consider bounding these variables or reformulating the model.


Solving non-convex MIQCP

Variable types: 116 continuous, 270 integer (102 binary)

Root relaxation: objective 7.255908e+03, 148 iterations, 0.00 seconds (0.00 work units)

    Nodes    |    Current Node    |     Objective Bounds      |     Work
 Expl Unexpl |  Obj  Depth IntInf | Incumbent    BestBd   Gap | It/Node Time

     0     0 7255.90796    0   36          - 7255.90796      -     -    0s
H    0     0                    429665.00000 7255.90796  98.3%     -    0s
H    0     0                    405665.00000 7255.90796  98.2%     -    0s
     0     0 7460.79112    0  123 405665.000 7460.79112  98.2%     -    0s
     0     0 7460.79116    0  126 405665.000 7460.79116  98.2%     -    0s
H    0     0                    323285.00000 7460.79116  97.7%     -    0s
     0     0 7482.02279    0   77 323285.000 7482.02279  97.7%     -    0s
H    0     0                    295325.00000 7486.63139  97.5%     -    0s
     0     0 7499.96472    0   59 295325.000 7499.96472  97.5%     -    0s
     0     0 7506.32071    0   64 295325.000 7506.32071  97.5%     -    0s
H    0     0                    268380.00000 7522.98488  97.2%     -    0s
H    0     0                    185148.00000 7522.98488  95.9%     -    0s
     0     0 7523.15944    0   90 185148.000 7523.15944  95.9%     -    0s
     0     0 7525.06369    0   79 185148.000 7525.06369  95.9%     -    0s
H    0     0                    156305.00000 7542.98500  95.2%     -    0s
     0     0 7542.98500    0   90 156305.000 7542.98500  95.2%     -    0s
     0     0 7545.63917    0   77 156305.000 7545.63917  95.2%     -    0s
     0     0 7702.99924    0   52 156305.000 7702.99924  95.1%     -    0s
H    0     0                    156087.00000 7703.41752  95.1%     -    0s
     0     0 7703.41752    0   74 156087.000 7703.41752  95.1%     -    0s
     0     0 7703.41752    0   82 156087.000 7703.41752  95.1%     -    0s
H    0     0                    78485.000000 7703.41752  90.2%     -    0s
     0     0 7703.41752    0   91 78485.0000 7703.41752  90.2%     -    0s
     0     0 7706.93866    0   94 78485.0000 7706.93866  90.2%     -    0s
     0     0 7709.46852    0   88 78485.0000 7709.46852  90.2%     -    0s
     0     0 7930.20000    0   56 78485.0000 7930.20000  89.9%     -    0s
     0     0 8132.44000    0   80 78485.0000 8132.44000  89.6%     -    0s
     0     0 8315.46269    0   84 78485.0000 8315.46269  89.4%     -    0s
     0     0 8353.88000    0   88 78485.0000 8353.88000  89.4%     -    0s
     0     0 8560.52736    0   83 78485.0000 8560.52736  89.1%     -    0s
     0     0 8736.06000    0   55 78485.0000 8736.06000  88.9%     -    0s
     0     0 8736.06000    0   47 78485.0000 8736.06000  88.9%     -    0s
     0     0 8736.06000    0   45 78485.0000 8736.06000  88.9%     -    0s
     0     0 8736.06000    0   74 78485.0000 8736.06000  88.9%     -    0s
     0     0 8736.06000    0   84 78485.0000 8736.06000  88.9%     -    0s
     0     0 8736.06000    0   78 78485.0000 8736.06000  88.9%     -    0s
     0     0 8736.06000    0   73 78485.0000 8736.06000  88.9%     -    0s
     0     0 8736.06000    0   77 78485.0000 8736.06000  88.9%     -    0s
     0     0 8736.06000    0   77 78485.0000 8736.06000  88.9%     -    0s
H    0     0                    54485.000000 8736.06000  84.0%     -    0s
     0     0 8736.06000    0   62 54485.0000 8736.06000  84.0%     -    0s
     0     0 8736.06000    0   47 54485.0000 8736.06000  84.0%     -    0s
     0     0 8799.70997    0   50 54485.0000 8799.70997  83.8%     -    0s
     0     0 8931.91952    0   49 54485.0000 8931.91952  83.6%     -    0s
H    0     0                    45910.000000 9740.80000  78.8%     -    0s
     0     0 9740.80000    0   46 45910.0000 9740.80000  78.8%     -    0s
     0     0 13411.0008    0   39 45910.0000 13411.0008  70.8%     -    1s
     0     0 13411.0008    0   33 45910.0000 13411.0008  70.8%     -    1s
H    0     0                    45765.000000 13411.0008  70.7%     -    1s
     0     0 13421.2125    0   69 45765.0000 13421.2125  70.7%     -    1s
H    0     0                    38885.000000 13426.2757  65.5%     -    1s
     0     0 13426.2757    0   52 38885.0000 13426.2757  65.5%     -    1s
     0     0 13426.2757    0   56 38885.0000 13426.2757  65.5%     -    1s
     0     0 13427.7164    0   56 38885.0000 13427.7164  65.5%     -    1s
     0     0 13432.6596    0   53 38885.0000 13432.6596  65.5%     -    1s
     0     0 13447.4499    0   53 38885.0000 13447.4499  65.4%     -    1s
     0     0 13447.4499    0   53 38885.0000 13447.4499  65.4%     -    1s
     0     0 13447.4499    0   44 38885.0000 13447.4499  65.4%     -    1s
     0     0 13447.4499    0   44 38885.0000 13447.4499  65.4%     -    1s
H    0     0                    34285.000000 13447.4499  60.8%     -    1s
     0     0 13447.4499    0   62 34285.0000 13447.4499  60.8%     -    1s
     0     0 13447.4499    0   49 34285.0000 13447.4499  60.8%     -    1s
     0     0 13850.9276    0   65 34285.0000 13850.9276  59.6%     -    1s
     0     0 15717.0000    0   65 34285.0000 15717.0000  54.2%     -    1s
     0     0 15907.0000    0   65 34285.0000 15907.0000  53.6%     -    1s
     0     0 16244.7778    0   52 34285.0000 16244.7778  52.6%     -    1s
     0     0 16527.0000    0   66 34285.0000 16527.0000  51.8%     -    1s
     0     0 16657.0000    0   66 34285.0000 16657.0000  51.4%     -    1s
     0     0 16767.0000    0   65 34285.0000 16767.0000  51.1%     -    1s
     0     0 17048.4157    0   65 34285.0000 17048.4157  50.3%     -    1s
     0     0 21079.6881    0   64 34285.0000 21079.6881  38.5%     -    1s
     0     2 21079.6881    0   64 34285.0000 21079.6881  38.5%     -    1s

Cutting planes:
  Gomory: 1
  Implied bound: 3
  MIR: 11
  RLT: 9
  Relax-and-lift: 1

Explored 143 nodes (2225 simplex iterations) in 1.88 seconds (0.17 work units)
Thread count was 32 (of 128 available processors)

Solution count 10: 34285 38885 45765 ... 156305

Optimal solution found (tolerance 1.00e-10)
Best objective 3.428500000000e+04, best bound 3.428500000000e+04, gap 0.0000%

Gurobi 11.0.0 (linux64) logging started Tue Sep 17 05:55:41 2024

Set parameter LogFile to value "gurobi.log"
Set parameter InfUnbdInfo to value 1
Gurobi Optimizer version 11.0.0 build v11.0.0rc2 (linux64 - "Ubuntu 22.04.4 LTS")

CPU model: AMD EPYC 7V13 64-Core Processor, instruction set [SSE2|AVX|AVX2]
Thread count: 128 physical cores, 128 logical processors, using up to 32 threads

Optimize a model with 24 rows, 290 columns and 79 nonzeros
Model fingerprint: 0x3a3ed287
Model has 290 quadratic constraints
Variable types: 82 continuous, 208 integer (0 binary)
Coefficient statistics:
  Matrix range     [1e+00, 6e+04]
  QMatrix range    [1e+00, 6e+04]
  QLMatrix range   [1e+00, 6e+04]
  Objective range  [1e+00, 1e+00]
  Bounds range     [1e+00, 7e+11]
  RHS range        [1e+00, 1e+00]
  QRHS range       [1e+00, 2e+06]
Warning: Model contains large bounds
         Consider reformulating model or setting NumericFocus parameter
         to avoid numerical issues.
Using branch priorities (all 0).
Presolve added 12 rows and 0 columns
Presolve removed 0 rows and 36 columns
Presolve time: 0.01s
Presolved: 969 rows, 386 columns, 2517 nonzeros
Presolved model has 18 SOS constraint(s)
Presolved model has 174 bilinear constraint(s)
Warning: Model contains variables with very large bounds participating
         in product terms.
         Presolve was not able to compute smaller bounds for these variables.
         Consider bounding these variables or reformulating the model.


Solving non-convex MIQCP

Variable types: 117 continuous, 269 integer (102 binary)

Root relaxation: objective 7.255908e+03, 147 iterations, 0.00 seconds (0.00 work units)

    Nodes    |    Current Node    |     Objective Bounds      |     Work
 Expl Unexpl |  Obj  Depth IntInf | Incumbent    BestBd   Gap | It/Node Time

     0     0 7255.90796    0   37          - 7255.90796      -     -    0s
H    0     0                    321845.00000 7255.90796  97.7%     -    0s
H    0     0                    293045.00000 7255.90796  97.5%     -    0s
     0     0 7460.79113    0  121 293045.000 7460.79113  97.5%     -    0s
     0     0 7460.79118    0  106 293045.000 7460.79118  97.5%     -    0s
H    0     0                    287370.00000 7460.79118  97.4%     -    0s
     0     0 7481.30621    0   87 287370.000 7481.30621  97.4%     -    0s
H    0     0                    271445.00000 7482.47905  97.2%     -    0s
     0     0 7482.98775    0   62 271445.000 7482.98775  97.2%     -    0s
     0     0 7502.98541    0   83 271445.000 7502.98541  97.2%     -    0s
H    0     0                    84335.000000 7502.98541  91.1%     -    0s
     0     0 7502.98574    0   83 84335.0000 7502.98574  91.1%     -    0s
     0     0 7503.15155    0   53 84335.0000 7503.15155  91.1%     -    0s
H    0     0                    81945.000000 7525.00974  90.8%     -    0s
     0     0 7525.00974    0   64 81945.0000 7525.00974  90.8%     -    0s
     0     0 7525.22439    0   90 81945.0000 7525.22439  90.8%     -    0s
     0     0 7525.22439    0   87 81945.0000 7525.22439  90.8%     -    0s
     0     0 7525.23627    0   81 81945.0000 7525.23627  90.8%     -    0s
     0     0 7526.83206    0   98 81945.0000 7526.83206  90.8%     -    0s
H    0     0                    74970.000000 7702.98488  89.7%     -    0s
     0     0 7702.98488    0   92 74970.0000 7702.98488  89.7%     -    0s
     0     0 7702.98488    0   50 74970.0000 7702.98488  89.7%     -    0s
     0     0 8054.26840    0   78 74970.0000 8054.26840  89.3%     -    0s
     0     0 8087.21695    0   73 74970.0000 8087.21695  89.2%     -    0s
     0     0 8087.46065    0   73 74970.0000 8087.46065  89.2%     -    0s
     0     0 8193.00000    0   82 74970.0000 8193.00000  89.1%     -    0s
     0     0 8250.42574    0   84 74970.0000 8250.42574  89.0%     -    0s
     0     0 8433.00000    0   74 74970.0000 8433.00000  88.8%     -    0s
H    0     0                    51340.000000 8433.00000  83.6%     -    0s
     0     0 8629.00000    0   74 51340.0000 8629.00000  83.2%     -    0s
     0     0 8629.00000    0   27 51340.0000 8629.00000  83.2%     -    0s
     0     0 8629.00000    0   53 51340.0000 8629.00000  83.2%     -    0s
     0     0 8629.00000    0   79 51340.0000 8629.00000  83.2%     -    0s
     0     0 8629.00000    0   76 51340.0000 8629.00000  83.2%     -    0s
     0     0 8629.00000    0   99 51340.0000 8629.00000  83.2%     -    0s
     0     0 9116.74126    0   69 51340.0000 9116.74126  82.2%     -    0s
H    0     0                    48265.000000 10321.9530  78.6%     -    0s
     0     0 10321.9530    0   68 48265.0000 10321.9530  78.6%     -    0s
     0     0 10321.9530    0   71 48265.0000 10321.9530  78.6%     -    0s
     0     0 10321.9530    0   46 48265.0000 10321.9530  78.6%     -    0s
     0     0 10581.0000    0   45 48265.0000 10581.0000  78.1%     -    0s
     0     0 13581.0000    0   35 48265.0000 13581.0000  71.9%     -    0s
H    0     0                    46925.000000 13581.0000  71.1%     -    0s
H    0     0                    45945.000000 13581.0000  70.4%     -    0s
     0     0 13583.0000    0   30 45945.0000 13583.0000  70.4%     -    0s
H    0     0                    45125.000000 13583.0000  69.9%     -    0s
H    0     0                    43025.000000 13583.0000  68.4%     -    0s
     0     0 13615.5673    0   33 43025.0000 13615.5673  68.4%     -    0s
     0     0 13616.7413    0   55 43025.0000 13616.7413  68.4%     -    0s
H    0     0                    42325.000000 13620.2500  67.8%     -    0s
     0     0 13620.2500    0   52 42325.0000 13620.2500  67.8%     -    0s
     0     0 13623.3726    0   52 42325.0000 13623.3726  67.8%     -    0s
     0     0 13623.8432    0   53 42325.0000 13623.8432  67.8%     -    0s
     0     0 13624.0000    0   49 42325.0000 13624.0000  67.8%     -    0s
H    0     0                    41345.000000 13624.0000  67.0%     -    0s
     0     0 13624.0000    0   49 41345.0000 13624.0000  67.0%     -    0s
     0     0 13624.0000    0   46 41345.0000 13624.0000  67.0%     -    0s
H    0     0                    37175.000000 13624.0000  63.4%     -    0s
H    0     0                    36470.000000 13624.0000  62.6%     -    0s
     0     0 13624.0000    0   46 36470.0000 13624.0000  62.6%     -    0s
     0     0 13624.0000    0   37 36470.0000 13624.0000  62.6%     -    0s
     0     0 13966.0000    0   43 36470.0000 13966.0000  61.7%     -    0s
     0     0 15147.3547    0   25 36470.0000 15147.3547  58.5%     -    0s
     0     0 15907.0000    0   37 36470.0000 15907.0000  56.4%     -    0s
     0     0 16215.0000    0   42 36470.0000 16215.0000  55.5%     -    0s
H    0     0                    36350.000000 16215.0000  55.4%     -    0s
     0     0 16416.5870    0   39 36350.0000 16416.5870  54.8%     -    0s
     0     0 16523.0000    0   34 36350.0000 16523.0000  54.5%     -    0s
     0     0 16527.0000    0   34 36350.0000 16527.0000  54.5%     -    0s
     0     0 16657.0000    0   34 36350.0000 16657.0000  54.2%     -    0s
     0     0 17074.1655    0   34 36350.0000 17074.1655  53.0%     -    0s
H    0     0                    34445.000000 17207.0000  50.0%     -    0s
     0     0 17207.0000    0   33 34445.0000 17207.0000  50.0%     -    0s
H    0     0                    34370.000000 17207.3274  49.9%     -    0s
     0     0 17207.5729    0   43 34370.0000 17207.5729  49.9%     -    0s
     0     0 17339.0000    0   36 34370.0000 17339.0000  49.6%     -    0s
     0     0 17339.0000    0   43 34370.0000 17339.0000  49.6%     -    1s
     0     0 17339.0000    0   70 34370.0000 17339.0000  49.6%     -    1s
     0     0 17339.0000    0   70 34370.0000 17339.0000  49.6%     -    1s
     0     0 17339.0000    0   70 34370.0000 17339.0000  49.6%     -    1s
     0     0 17339.0000    0   63 34370.0000 17339.0000  49.6%     -    1s
     0     0 17339.0000    0   61 34370.0000 17339.0000  49.6%     -    1s
     0     0 17339.0000    0   52 34370.0000 17339.0000  49.6%     -    1s
     0     0 17339.0000    0   58 34370.0000 17339.0000  49.6%     -    1s
     0     0 17339.0000    0   59 34370.0000 17339.0000  49.6%     -    1s
     0     0 17339.0000    0   59 34370.0000 17339.0000  49.6%     -    1s
     0     0 17339.0000    0   63 34370.0000 17339.0000  49.6%     -    1s
     0     0 17339.0000    0   63 34370.0000 17339.0000  49.6%     -    1s
     0     0 17339.0000    0   62 34370.0000 17339.0000  49.6%     -    1s
     0     0 17339.0000    0   58 34370.0000 17339.0000  49.6%     -    1s
     0     0 17339.0000    0   67 34370.0000 17339.0000  49.6%     -    1s
     0     0 17339.0000    0   67 34370.0000 17339.0000  49.6%     -    1s
     0     0 17339.0000    0   64 34370.0000 17339.0000  49.6%     -    1s
     0     0 17339.0000    0   58 34370.0000 17339.0000  49.6%     -    1s
     0     0 17339.0000    0   53 34370.0000 17339.0000  49.6%     -    1s
     0     0 17339.0000    0   61 34370.0000 17339.0000  49.6%     -    1s
     0     0 17339.0000    0   70 34370.0000 17339.0000  49.6%     -    1s
     0     0 17339.0000    0   64 34370.0000 17339.0000  49.6%     -    1s
     0     0 17339.0000    0   70 34370.0000 17339.0000  49.6%     -    1s
     0     0 17339.0000    0   70 34370.0000 17339.0000  49.6%     -    1s
     0     0 17339.0000    0   68 34370.0000 17339.0000  49.6%     -    1s
     0     0 17339.0000    0   66 34370.0000 17339.0000  49.6%     -    1s
     0     2 17339.0000    0   66 34370.0000 17339.0000  49.6%     -    1s

Cutting planes:
  Gomory: 4
  Implied bound: 17
  MIR: 52
  StrongCG: 4
  RLT: 41
  Relax-and-lift: 6

Explored 953 nodes (10865 simplex iterations) in 1.98 seconds (0.20 work units)
Thread count was 32 (of 128 available processors)

Solution count 10: 34370 34445 36350 ... 45945

Optimal solution found (tolerance 1.00e-10)
Best objective 3.437000000000e+04, best bound 3.437000000000e+04, gap 0.0000%
